c description: Random 3-CNF over 19 variables and 81 clauses
c generator: CNFgen (0.9.2)
c copyright: (C) 2012-2022 Massimo Lauria <massimo.lauria@uniroma1.it>
c url: https://massimolauria.net/cnfgen
c command line: cnfgen --output CNF_4.28/19_bit_81_943.cnf randkcnf 3 19 81
c
p cnf 19 81
8 -17 19 0
-10 14 -16 0
-5 10 -12 0
-5 13 18 0
-14 15 19 0
12 14 17 0
8 -16 18 0
-5 -14 19 0
3 7 -18 0
-1 5 16 0
-1 -4 19 0
-6 -10 -16 0
-7 9 12 0
10 -11 19 0
-6 9 -16 0
1 10 18 0
-8 -11 -19 0
7 8 -16 0
-6 11 -17 0
-5 7 9 0
-4 -16 -17 0
4 -5 10 0
3 -12 18 0
-12 -14 -15 0
3 -5 11 0
-5 -9 16 0
-6 -9 12 0
8 -9 -18 0
-9 14 -15 0
10 -12 -18 0
-1 7 12 0
5 -13 14 0
5 -17 -18 0
-10 11 12 0
-5 -14 -18 0
-9 10 15 0
11 -17 18 0
-1 8 -16 0
-3 -9 -17 0
-6 8 14 0
-15 -16 19 0
10 -11 12 0
8 -14 -17 0
5 -6 -7 0
-8 15 -19 0
-7 10 19 0
10 16 -17 0
-1 9 11 0
8 17 -19 0
-2 16 17 0
-4 -6 12 0
-5 7 -8 0
-1 -6 -10 0
-4 -9 -10 0
5 8 -19 0
-2 -7 15 0
2 12 18 0
2 -5 -9 0
-11 17 19 0
-6 -11 17 0
4 -6 -9 0
8 18 19 0
13 18 19 0
-2 5 -11 0
-1 -12 15 0
8 15 -19 0
-8 18 19 0
9 10 12 0
1 -13 -14 0
-7 11 14 0
-12 -16 -19 0
3 14 19 0
-14 -16 -19 0
11 -15 -16 0
13 16 19 0
-11 -13 -16 0
-10 11 14 0
-1 -3 -10 0
1 -7 11 0
-7 -8 10 0
-11 -17 -18 0
